language ESSENCE' 1.0
letting AssignmentMatrix be [[0, 0, 0, 0, 0, 1, 1, 1], 
[0, 0, 0, 1, 1, 0, 0, 0], 
[0, 0, 0, 0, 0, 0, 0, 0], 
[0, 0, 1, 0, 0, 0, 0, 0], 
[1, 1, 0, 0, 0, 0, 0, 0]]
letting OccupancyVector be [1, 1, 1, 1, 1, 1, 1, 1]
letting Price be [379, 379, 379, 128, 128, 128, 128, 128]
letting VMType be [15, 15, 15, 17, 17, 17, 17, 17]
